/*********************************************
 * OPL 12.8.0.0 Data
 * Author: HP
 * Creation Date: Jul 6, 2022 at 4:46:00 PM
 *********************************************/
t=3;
i=2;
r=1;
D=[[10,5],[5,10],[10,5]];
E=[[[5],[10]],[[5],[10]],[[10],[5]]];
X=[[0,0],[0,0],[0,0]];